
Log started (V11.0.0) Tue May 13 17:39:38 2008

Tried aggregator 1 time.
Reduced MIP has 120 rows, 2001 columns, and 4020 nonzeros.
Presolve time =    0.01 sec.
Clique table members: 100.
MIP emphasis: balance optimality and feasibility.
MIP search method: dynamic search.
Parallel mode: none, using 1 thread.
Root relaxation solution time =    0.05 sec.

        Nodes                                         Cuts/
   Node  Left     Objective  IInf  Best Integer     Best Node    ItCnt     Gap

*     0+    0                         1875.0000      111.4817      255   94.05%
*     0+    0                          163.0000      111.4817      255   31.61%
      0     0      112.0000    41      163.0000      Fract: 9      285   31.29%
*     0+    0                          134.0000      112.0000      285   16.42%
      0     0      112.2526    39      134.0000       Cuts: 3      339   16.23%
*     0+    0                          130.0000      112.2526      339   13.65%
      0     0      116.0470    40      130.0000      Cuts: 21      457   10.73%
*     0+    0                          123.0000      116.0470      457    5.65%
      0     0      116.6103    40      123.0000       Cuts: 9      497    5.19%
      0     0      117.3463    32      123.0000       Cuts: 9      527    4.60%
*     0+    0                          122.0000      117.3463      527    3.81%
      0     0      117.3535    40      122.0000       Cuts: 5      535    3.81%
      0     0      117.9278    32      122.0000       Cuts: 5      549    3.34%
*     0+    0                          121.0000      117.9278      549    2.54%
      0     0      117.9747    33      121.0000       Cuts: 3      575    2.50%
      0     0      118.0317    37      121.0000       Cuts: 2      584    2.45%
      0     0      118.0410    37      121.0000       Cuts: 2      587    2.45%
*     0+    0                          120.0000      118.0410      587    1.63%
      0     0      118.3579    36      120.0000       Cuts: 4      623    1.37%
      0     0      118.9137    38      120.0000       Cuts: 7      669    0.91%
      0     0    infeasible            120.0000    MIRcuts: 7      669    0.00%

Cover cuts applied:  8
Mixed integer rounding cuts applied:  24

Solution pool: 8 solutions saved.

MIP - Integer optimal solution:  Objective = 1.2000000000e+002
Solution time =    1.08 sec.  Iterations = 669  Nodes = 0


Incumbent solution
Variable Name           Solution Value
Cmax                        120.000000
X_1_11                        1.000000
X_2_20                        1.000000
X_3_16                        1.000000
X_4_18                        1.000000
X_5_10                        1.000000
X_6_4                         1.000000
X_7_17                        1.000000
X_8_20                        1.000000
X_9_20                        1.000000
X_10_4                        1.000000
X_11_14                       1.000000
X_12_4                        1.000000
X_13_18                       1.000000
X_14_1                        1.000000
X_15_10                       1.000000
X_16_20                       1.000000
X_17_10                       1.000000
X_18_16                       1.000000
X_19_2                        1.000000
X_20_4                        1.000000
X_21_7                        1.000000
X_22_6                        1.000000
X_23_20                       1.000000
X_24_10                       1.000000
X_25_12                       1.000000
X_26_10                       1.000000
X_27_10                       1.000000
X_28_10                       1.000000
X_29_4                        1.000000
X_30_4                        1.000000
X_31_8                        1.000000
X_32_4                        1.000000
X_33_16                       1.000000
X_34_19                       1.000000
X_35_10                       1.000000
X_36_3                        1.000000
X_37_6                        1.000000
X_38_4                        1.000000
X_39_9                        1.000000
X_40_9                        1.000000
X_41_4                        1.000000
X_42_10                       1.000000
X_43_10                       1.000000
X_44_14                       1.000000
X_45_11                       1.000000
X_46_16                       1.000000
X_47_15                       1.000000
X_48_5                        1.000000
X_49_4                        1.000000
X_50_8                        1.000000
X_51_20                       1.000000
X_52_4                        1.000000
X_53_10                       1.000000
X_54_10                       1.000000
X_55_20                       1.000000
X_56_9                        1.000000
X_57_11                       1.000000
X_58_16                       1.000000
X_59_4                        1.000000
X_60_4                        1.000000
X_61_20                       1.000000
X_62_4                        1.000000
X_63_9                        1.000000
X_64_4                        1.000000
X_65_9                        1.000000
X_66_16                       1.000000
X_67_9                        1.000000
X_68_8                        1.000000
X_69_10                       1.000000
X_70_16                       1.000000
X_71_10                       1.000000
X_72_10                       1.000000
X_73_9                        1.000000
X_74_16                       1.000000
X_75_20                       1.000000
X_76_1                        1.000000
X_77_5                        1.000000
X_78_20                       1.000000
X_79_10                       1.000000
X_80_15                       1.000000
X_81_20                       1.000000
X_82_3                        1.000000
X_83_10                       1.000000
X_84_4                        1.000000
X_85_11                       1.000000
X_86_4                        1.000000
X_87_10                       1.000000
X_88_9                        1.000000
X_89_8                        1.000000
X_90_8                        1.000000
X_91_10                       1.000000
X_92_4                        1.000000
X_93_5                        1.000000
X_94_4                        1.000000
X_95_4                        1.000000
X_96_10                       1.000000
X_97_13                       1.000000
X_98_10                       1.000000
X_99_9                        1.000000
X_100_9                       1.000000
All other variables in the range 1-2001 are 0.
